20J7M/DAT/20J7MUNL-9.dat
20 7
0.2841 0.2841
21.6712 21.6712
22.7763 22.7763
20.1184 20.1184
15.7937 15.7937
42.8545 42.8545
45.7818 45.7818
3.6805 3.6805
4.4775 4.4775
14.3667 14.3667
30.2828 30.2828
34.2674 34.2674
24.845 24.845
17.12 17.12
32.8577 32.8577
9.7344 9.7344
44.6144 44.6144
28.8929 28.8929
10.4454 10.4454
37.2028 37.2028
462.0675