20J7M/SOL/20J7MUNL-9.sol
solution status: optimal solution found
objective value:                     66.0096428571428
x#1#2                                               1 	(obj:0)
x#2#2                                               1 	(obj:0)
x#3#1                               0.306207392270539 	(obj:0)
x#3#2                               0.693792607729461 	(obj:0)
x#4#2                                               1 	(obj:0)
x#5#7                                               1 	(obj:0)
x#6#3                               0.773593038237358 	(obj:0)
x#6#6                               0.226406961762642 	(obj:0)
x#7#5                               0.644997731475328 	(obj:0)
x#7#7                               0.355002268524672 	(obj:0)
x#8#7                                               1 	(obj:0)
x#9#1                                               1 	(obj:0)
x#10#6                                              1 	(obj:0)
x#11#7                                              1 	(obj:0)
x#12#1                                              1 	(obj:0)
x#13#6                                              1 	(obj:0)
x#14#1                                              1 	(obj:0)
x#15#3                                              1 	(obj:0)
x#16#4                                              1 	(obj:0)
x#17#2                              0.182315895444393 	(obj:0)
x#17#5                              0.817684104555607 	(obj:0)
x#18#1                              0.109731852066472 	(obj:0)
x#18#4                              0.298586948943957 	(obj:0)
x#18#6                              0.591681198989568 	(obj:0)
x#19#4                                              1 	(obj:0)
x#20#4                                              1 	(obj:0)
z                                    66.0096428571428 	(obj:1)
